c Sudoku solution
p cnf 729 0
127 0
189 0
244 0
288 0
292 0
332 0
341 0
369 0
445 0
474 0
551 0
597 0
611 0
633 0
646 0
722 0
773 0
835 0
871 0
191 0
481 0
918 0
931 0
761 0
221 0
952 0
882 0
685 0
966 0
755 0
854 0
239 0
468 0
412 0
437 0
383 0
394 0
315 0
525 0
586 0
493 0
459 0
657 0
426 0
328 0
538 0
356 0
253 0
158 0
267 0
165 0
142 0
113 0
216 0
134 0
176 0
275 0
377 0
736 0
896 0
798 0
848 0
543 0
863 0
829 0
923 0
714 0
817 0
787 0
984 0
749 0
947 0
519 0
624 0
564 0
662 0
572 0
979 0
995 0
678 0
699 0
